p tdp 60 59
43 12
57 14
7 36
56 38
28 17
16 30
27 42
18 33
31 15
5 59
29 49
15 54
58 22
32 18
27 9
36 41
21 16
12 8
39 56
34 2
20 39
60 11
40 43
48 10
47 52
3 55
27 51
46 3
37 53
4 25
38 60
52 43
7 6
45 38
48 25
2 17
26 23
50 15
49 54
55 31
35 1
59 2
57 42
1 21
6 42
26 9
16 39
24 19
10 29
41 22
17 40
16 34
46 13
13 24
52 53
23 18
44 55
44 38
23 52
